nApps = 215
nRes = 9
nActs = 440
nNetworks = 6

assignmentToResources = [3,2,1,1,3,2,1,2,2,2,1,1,1,3,1,2,1,2,1,1,3,1,1,3,2,1,1,3,1,3,3,3,2,1,1,1,1,1,2,2,2,2,2,2,2,2,3,2,3,3,3,3,3,3,2,2,3,1,2,3,3,3,3,1,1,1,1,1,3,3,3,1,1,1,1,1,1,1,3,1,2,3,1,2,1,2,3,2,1,1,2,1,1,1,1,2,2,1,2,1,6,6,6,5,5,5,4,4,4,4,6,6,6,5,5,4,5,5,5,5,5,4,4,4,4,4,4,4,4,4,4,4,4,4,5,5,5,5,4,4,6,6,6,4,4,4,4,4,4,6,4,4,4,4,4,4,6,6,6,6,6,6,6,5,5,4,4,4,4,4,4,4,4,5,5,5,5,5,5,5,5,6,6,5,5,6,6,6,6,6,6,6,5,5,5,5,5,5,5,6,6,5,5,5,5,6,6,6,6,6,6,6,6,6,6,4,4,6,4,4,4,4,4,6,4,5,5,5,6,4,4,4,4,6,6,5,5,4,4,4,4,4,4,4,4,5,7,6,8,4,9,5,9,6,7,4,8,6,7,4,8,5,9,4,8,6,7,4,8,5,7,4,8,6,7,4,8,5,7,6,8,5,7,4,9,4,8,6,7,4,9,6,8,5,7,8,8,7,7,9,7,8,8,8,9,8,8,8,7,7,9,7,7,7,9,9,9,9,9,8,9,8,9,8,9,8,9,8,8,9,7,9,7,8,9,8,7,7,8,8,8,8,8,9,8,8,8,9,9,9,9,7,7,7,7,7,8,7,7,9,8,9,8,9,8,8,8,8,9,7,7,7,7,7,9,9,8,8,9,7,7,7,7,7,8,7,7,7,7,9,7,7,9,9,7,7,9,7,9,7,7,7,7,7,7,7,7,8,7,8,9,9,8,8,8,8,8,9,8,8,9,7,9,8,8,8,9,9,8,7,7,7,8,8,8,8,9,9,9,8];

processingTimes = [88,56,104,120,136,128,128,136,152,128,96,96,104,128,128,136,96,64,120,64,128,64,88,120,144,64,88,72,136,40,120,104,152,56,152,72,128,136,104,152,112,136,112,168,144,128,104,104,128,104,56,112,160,128,56,56,160,112,120,112,136,128,136,128,136,120,88,152,72,104,168,128,120,80,128,48,112,64,168,152,88,48,144,64,136,72,168,120,160,96,128,112,112,112,128,136,88,128,120,128,200,4,4,3,5,4,4,4,4,500,500,4,4,3,3,3,500,4,3,3,4,3,3,500,5,5,4,4,3,3,4,3,4,3,3,3,3,100,13,13,5,3,500,500,500,500,4,500,3,13,4,4,500,4,3,500,3,6,3,3,100,8,4,4,4,500,4,4,5,5,4,4,4,3,3,3,500,3,500,3,500,4,3,3,3,3,3,3,6,4,500,5,3,500,3,4,4,5,5,500,3,3,3,500,500,3,8,8,3,3,3,3,3,4,3,500,4,3,4,4,4,4,5,4,3,3,500,500,3,4,500,5,5,4,500,4,4,500,4,4,4,4,3,3,500,4,4,3,3,3,3,4,4,4,4,4,4,4,4,13,13,4,4,3,3,4,4,4,4,4,4,3,3,3,3,5,5,3,3,500,500,500,500,500,500,4,4,3,3,5,5,4,4,4,4,200,4,4,3,5,4,4,4,4,500,500,4,4,3,3,3,500,4,3,3,4,3,3,500,5,5,4,4,3,3,4,3,4,3,3,3,3,100,13,13,5,3,500,500,500,500,4,500,3,13,4,4,500,4,3,500,3,6,3,3,100,8,4,4,4,500,4,4,5,5,4,4,4,3,3,3,500,3,500,3,500,4,3,3,3,3,3,3,6,4,500,5,3,500,3,4,4,5,5,500,3,3,3,500,500,3,8,8,3,3,3,3,3,4,3,500,4,3,4,4,4,4,5,4,3,3,500,500,3,4,500,5,5,4,500,4,4,500,4,4,4,4,3,3,500];

periods = [2000,20000,100000,100000,10000,10000,10000,20000,10000,10000,10000,100000,100000,100000,100000,100000,100000,1000,100000,10000,10000,5000,10000,10000,10000,100000,100000,10000,10000,100000,100000,1000,10000,100000,20000,20000,20000,1000,100000,10000,10000,20000,20000,100000,10000,2000,10000,20000,50000,20000,20000,100000,10000,10000,10000,1000,100000,100000,10000,10000,20000,50000,20000,10000,100000,50000,100000,100000,10000,1000,100000,20000,20000,20000,10000,20000,10000,100000,20000,10000,20000,10000,10000,10000,10000,10000,10000,10000,20000,20000,20000,10000,20000,10000,10000,100000,20000,20000,10000,10000,2000,2000,2000,20000,20000,20000,100000,100000,100000,100000,10000,10000,10000,10000,10000,10000,20000,20000,10000,10000,10000,10000,10000,10000,100000,100000,100000,100000,100000,100000,100000,100000,100000,100000,1000,1000,1000,1000,10000,10000,10000,10000,10000,5000,5000,5000,5000,10000,10000,10000,100000,100000,100000,100000,10000,10000,100000,100000,100000,100000,1000,1000,1000,10000,10000,20000,20000,20000,20000,20000,20000,20000,1000,10000,10000,10000,20000,20000,20000,10000,10000,10000,10000,20000,20000,50000,50000,20000,20000,20000,100000,10000,10000,10000,10000,10000,10000,1000,1000,100000,100000,10000,10000,10000,10000,10000,10000,10000,20000,50000,50000,20000,20000,20000,20000,50000,100000,10000,20000,20000,10000,10000,100000,20000,10000,20000,20000,20000,10000,10000,10000,10000,10000,10000,10000,10000,10000,20000,20000,10000,20000,20000,10000,10000,10000,100000,100000,100000,100000,100000,100000,100000,100000,100000,100000,100000,100000,100000,100000,100000,100000,10000,10000,10000,10000,10000,10000,20000,20000,20000,20000,20000,20000,20000,20000,20000,20000,20000,20000,10000,10000,10000,10000,10000,10000,10000,10000,10000,10000,10000,10000,20000,20000,10000,10000,2000,2000,2000,20000,20000,20000,100000,100000,100000,100000,10000,10000,10000,10000,10000,10000,20000,20000,10000,10000,10000,10000,10000,10000,100000,100000,100000,100000,100000,100000,100000,100000,100000,100000,1000,1000,1000,1000,10000,10000,10000,10000,10000,5000,5000,5000,5000,10000,10000,10000,100000,100000,100000,100000,10000,10000,100000,100000,100000,100000,1000,1000,1000,10000,10000,20000,20000,20000,20000,20000,20000,20000,1000,10000,10000,10000,20000,20000,20000,10000,10000,10000,10000,20000,20000,50000,50000,20000,20000,20000,100000,10000,10000,10000,10000,10000,10000,1000,1000,100000,100000,10000,10000,10000,10000,10000,10000,10000,20000,50000,50000,20000,20000,20000,20000,50000,100000,10000,20000,20000,10000,10000,100000,20000,10000,20000,20000,20000,10000,10000,10000,10000,10000,10000,10000,10000,10000,20000,20000,10000,20000,20000,10000,10000,10000];

assignmentToClusters = [1,2,3,4,5,6,7,8,9,10,11,12,13,4,14,4,15,16,4,17,18,19,20,21,22,23,24,25,26,4,27,28,5,29,30,8,31,32,33,34,35,36,37,4,38,39,40,8,41,42,43,44,45,46,47,48,49,15,50,9,8,51,52,9,53,54,55,4,9,56,4,57,58,8,59,8,22,4,37,5,8,22,60,61,62,63,5,64,65,66,67,25,8,50,68,4,8,8,69,70,71,72,73,74,75,76,77,78,79,80,81,82,83,84,85,86,87,88,89,90,91,92,93,94,95,96,97,98,99,100,101,102,103,104,105,106,107,108,109,110,111,112,113,114,115,116,117,118,119,120,121,122,123,124,125,126,127,128,129,130,131,132,133,134,135,136,137,138,139,140,141,142,143,144,145,146,147,148,149,150,151,152,153,154,155,156,157,158,159,160,161,162,163,164,165,166,167,168,169,170,171,172,173,174,175,176,177,178,179,180,181,182,183,184,185,186,187,188,189,190,191,192,193,194,195,196,197,198,199,200,201,202,203,204,205,206,207,208,209,210,211,212,213,214,215,4,4,4,4,4,4,4,4,4,4,4,4,4,4,4,4,5,5,5,5,5,5,8,8,8,8,8,8,8,8,8,8,8,8,9,9,9,9,9,9,22,22,22,22,25,25,37,37,50,50,71,72,73,74,75,76,77,78,79,80,81,82,83,84,85,86,87,88,89,90,91,92,93,94,95,96,97,98,99,100,101,102,103,104,105,106,107,108,109,110,111,112,113,114,115,116,117,118,119,120,121,122,123,124,125,126,127,128,129,130,131,132,133,134,135,136,137,138,139,140,141,142,143,144,145,146,147,148,149,150,151,152,153,154,155,156,157,158,159,160,161,162,163,164,165,166,167,168,169,170,171,172,173,174,175,176,177,178,179,180,181,182,183,184,185,186,187,188,189,190,191,192,193,194,195,196,197,198,199,200,201,202,203,204,205,206,207,208,209,210,211,212,213,214,215];

precedenceAdjList = [[],[],[],[77,246],[262],[],[],[268],[280],[],[],[],[],[250,252],[],[260],[57],[],[254],[],[],[],[],[],[286],[],[],[290],[],[],[],[],[264],[],[],[274],[],[],[],[],[],[],[292],[248],[],[],[],[276],[],[],[],[],[],[],[],[],[],[],[],[],[],[],[],[282],[],[],[],[],[284],[],[],[],[],[75,278],[],[],[288],[67,258],[],[266],[96],[],[],[],[],[],[],[],[],[],[],[],[270],[294],[],[256],[272],[92],[],[],[],[],[],[],[],[],[],[],[],[],[],[],[],[],[],[],[],[],[],[],[],[],[],[],[],[],[],[],[],[],[],[],[],[],[],[],[],[],[],[],[],[],[],[],[],[],[],[],[],[],[],[],[],[],[],[],[],[],[],[],[],[],[],[],[],[],[],[],[],[],[],[],[],[],[],[],[],[],[],[],[],[],[],[],[],[],[],[],[],[],[],[],[],[],[],[],[],[],[],[],[],[],[],[],[],[],[],[],[],[],[],[],[],[],[],[],[],[],[],[],[],[],[],[],[],[],[],[],[],[],[],[],[],[],[],[],[],[],[],[],[],[],[],[],[],[43],[245],[13],[247],[18],[249],[95],[251],[70],[253],[18],[255],[29],[257],[77],[259],[32],[261],[79],[263],[86],[265],[97],[267],[80],[269],[35],[271],[60],[273],[35],[275],[7],[277],[59],[279],[8],[281],[63],[283],[76],[285],[81],[287],[91],[289],[78],[291],[58],[293],[100],[101],[102],[103],[104],[105],[106],[107],[108],[109],[110],[111],[112],[113],[114],[115],[116],[117],[118],[119],[120],[121],[122],[123],[124],[125],[126],[127],[128],[129],[130],[131],[132],[133],[134],[135],[136],[137],[138],[139],[140],[141],[142],[143],[144],[145],[146],[147],[148],[149],[150],[151],[152],[153],[154],[155],[156],[157],[158],[159],[160],[161],[162],[163],[164],[165],[166],[167],[168],[169],[170],[171],[172],[173],[174],[175],[176],[177],[178],[179],[180],[181],[182],[183],[184],[185],[186],[187],[188],[189],[190],[191],[192],[193],[194],[195],[196],[197],[198],[199],[200],[201],[202],[203],[204],[205],[206],[207],[208],[209],[210],[211],[212],[213],[214],[215],[216],[217],[218],[219],[220],[221],[222],[223],[224],[225],[226],[227],[228],[229],[230],[231],[232],[233],[234],[235],[236],[237],[238],[239],[240],[241],[242],[243],[244]];